$CONTRL 
 SCFTYP=RHF 
 EXETYP=RUN 
 RUNTYP=EDA 
 COORD=PRINAXIS
 MPLEVL=2
 MOLPLT=.TRUE. 
 NOSYM=1 
 MAXIT=200 
 ICHARG=0 
 MULT=1 
$END
$BASIS 
 GBASIS=N311 
 NGAUSS=6 
 NDFUNC=1 
 NPFUNC=1 
 DIFFSP=.T. 
 DIFFS=.T.
 POLAR=POPN311 
$END
$MP2 
 NACORE=0 
$END
$STATPT  
 OPTTOL=0.0001 
 NSTEP=500 
 IFREEZ(1)=52,53,54 
$END
$SCF 
 DIRSCF=.T. 
 NCONV=7 
$END
$DFT 
 IDCVER=4 
$END
$SYSTEM 
 TIMLIM=525600 
 MEMORY=10000000 
 MEMDDI=100 $END
$LMOEDA
 MATOM(1)=19 M
 ATOM(2)=3
 MCHARG(1)=1 
 MCHARG(2)=-1
 MMULT(1)=1 
 MMULT(2)=1 
 SUPBAS=.TRUE. 
$END
$DATA
DIMERS
C1
 N           7.0  -0.2917896366  -1.3453151642  -0.2867217885
 N           7.0  -1.8391713982   0.1781761194  -0.3537291547
 C           6.0   0.9813934620  -2.0290408447  -0.5783054644
 C           6.0  -0.7215911331  -0.2630124323  -0.9457796381
 C           6.0  -1.1093392693  -1.5615472279   0.7933296477
 C           6.0  -2.0866634858  -0.5959268748   0.7518895695
 C           6.0   1.8901080001  -2.0129733251   0.6394840700
 C           6.0  -2.4415867536   1.4796795448  -0.6327216800
 H           1.0   1.4391768547  -1.4694946255  -1.3961326668
 H           1.0   0.7469887520  -3.0442670196  -0.9098005693
 H           1.0  -0.2044351532   0.2020938447  -1.7729956519
 H           1.0  -0.9512119993  -2.3703973109   1.4873951773
 H           1.0  -2.9187319874  -0.4063923229   1.4108106102
 H           1.0   2.8600910268  -2.4303959445   0.3592159217
 H           1.0   2.0313366998  -0.9877349341   0.9857299023
 H           1.0   1.4818153778  -2.6160237918   1.4546662251
 H           1.0  -2.3755192988   1.6743342120  -1.7027111745
 H           1.0  -3.4878300929   1.4526006234  -0.3293364648
 H           1.0  -1.8820477170   2.2344167184  -0.0757226175
 C           6.0   1.6202543754   1.3431400316  -0.3660713773
 S          16.0   0.8191011630   1.6984864557   1.0348630216
 N           7.0   2.0957271787   0.9667571357  -1.3973813100
 $END
