# -- INITIALIZATION -- #
log  lammps_lj.log

dimension 3
boundary f f f
atom_style full
units metal
dielectric 2.0
bond_style harmonic
angle_style harmonic
#kspace_style pppm/cg 1.0e-4
#kspace_modify pressure/scalar yes

neighbor 2.0 bin
neigh_modify delay 0 every 1 check yes

# -- ATOM DEFINITION -- #
region box1 block -40.0 40.0 -40.0 40.0 -40.0 40.0
create_box 4 box1 bond/types 2 extra/bond/per/atom 2 angle/types 1 extra/angle/per/atom 1

#molecule cat_ion cation_mol.txt
mass    1  86.8 #290.0 #anion
mass    2  67.0 #ring
mass    3  15.0 #methyl
mass    4  29.0 #ethyl

create_atoms 1 single  10.0 0.0 0.0
create_atoms 2 single   0.930064 0.67314 0.003587
create_atoms 3 single   3.618873 0.602433 0.01098
create_atoms 4 single   -1.57953 -0.87466 0.74759
group anion  type 1
group ring   type 2
group methyl type 3
group ethyl  type 4

bond_coeff 1 200.0 2.689748837
bond_coeff 2 200.0 3.04931147
angle_coeff 1 200.0 144.1868904

## -- INTERATOMIC POTENTIALS -- #
pair_style lj/cut 30.0
pair_modify mix geometric
################### properties to change
pair_coeff 1 1 0.001 10.0  30.0
pair_coeff 2 2 0.001  5.0  15.0
pair_coeff 3 3 0.001  5.0  15.0
pair_coeff 4 4 0.001  5.0  15.0

create_bonds single/bond 1 2 3
create_bonds single/bond 2 2 4
create_bonds single/angle 1 3 2 4

set type 1 charge -1.0
set type 2 charge  0.408675
set type 3 charge  0.317505 
set type 4 charge  0.273820

pair_style lj/cut 30.0
pair_modify mix geometric
################### properties to change
pair_coeff 1 1 0.001 10.0  30.0
pair_coeff 2 2 0.001  5.0  15.0
pair_coeff 3 3 0.001  5.0  15.0
pair_coeff 4 4 0.001  5.0  15.0

########################################

write_data solid.data pair ij

## -- PROPERTY COMPUTE -- #
compute peratom all pe/atom

##################################
## EQUILIBRATION ##
##################################
velocity  all zero linear
reset_timestep  0
timestep	1
fix	  333 all print 1 "${dist} ${theta} ${phi} ${ILpe}" file lmps_pot_ener.dat screen no 

thermo   100
thermo_style custom step temp pe ke ebond press density
#dump 1 all custom 100 my_dump.* id x y z c_peratom
##################################
#  FIXED angles
##################################
fix frzanion anion setforce 0.0 0.0 0.0
fix frzring  ring  setforce 0.0 0.0 0.0

label dist_loop
label theta_loop
label phi_loop
variable dist   index   dist_values 
variable theta  index   theta_values
variable phi    index   phi_values

variable  anx equal x[1]
variable  any equal y[1]
variable  anz equal z[1]

variable  ILpe  equal pe

variable  vxx equal sin($(v_theta/180*PI))*cos($(v_phi/180*PI))
variable  vzz equal sin($(v_theta/180*PI))*sin($(v_phi/180*PI))
variable  vyy equal cos($(v_theta/180*PI))
#variable  vxx equal sin($(v_theta/180*PI))*cos($(v_phi/180*PI))
#variable  vyy equal sin($(v_theta/180*PI))*sin($(v_phi/180*PI))
#variable  vzz equal cos($(v_theta/180*PI))
variable  xx equal v_dist*v_vxx
variable  yy equal v_dist*v_vyy
variable  zz equal v_dist*v_vzz

set atom 1 x ${xx} y ${yy} z ${zz}
run      1

next phi
jump single_loop.CG.IL.in phi_loop

next theta
jump single_loop.CG.IL.in theta_loop

next dist
jump single_loop.CG.IL.in dist_loop


